c SAT Generator for power-law distributed variable frequencies
c -g u -v 20 -c 91 -k 3 -p 2.750000 -b 3.200000 -f /home/schmidt/Devel/ni-kop-sat/data/ensemble/ruf20-91/ruf20-91-536 -u 1 -U 1 -s 152535489
p cnf 20 91
-9 12 -19 0
3 10 20 0
-9 -13 -14 0
13 15 -17 0
-12 -17 18 0
4 12 17 0
-4 5 9 0
6 9 16 0
3 -16 -18 0
3 -8 -12 0
3 -4 -8 0
-1 -7 15 0
-9 -14 16 0
-6 16 18 0
3 -9 19 0
2 11 18 0
-5 9 -17 0
-2 -7 -11 0
-2 7 -10 0
-1 -6 10 0
3 -7 14 0
1 6 20 0
2 -6 19 0
-6 -17 -19 0
4 -15 -16 0
-1 2 14 0
6 -7 15 0
8 15 17 0
-3 -13 -14 0
1 7 14 0
-2 -5 -13 0
4 -7 18 0
6 10 12 0
2 15 20 0
5 -9 15 0
-5 12 -13 0
-3 8 13 0
-5 -12 16 0
-2 -10 -17 0
5 18 -19 0
-1 6 -16 0
-5 11 -18 0
4 5 17 0
-3 -11 -18 0
-2 -6 -17 0
8 -9 -12 0
-1 7 14 0
5 -9 -14 0
-2 -8 -13 0
-1 -5 12 0
-1 -13 -19 0
8 15 20 0
-4 6 -8 0
-13 -18 -19 0
-1 -12 -19 0
-7 9 19 0
-1 -10 17 0
10 -12 16 0
-6 -9 10 0
7 10 13 0
2 13 -20 0
-1 2 -18 0
-8 13 -16 0
2 -13 -17 0
-1 -4 5 0
1 9 19 0
-1 6 12 0
-2 -4 -16 0
-8 12 17 0
5 -6 7 0
8 9 16 0
-1 7 -19 0
-1 14 -15 0
-1 7 12 0
4 13 -14 0
11 -12 20 0
1 10 -14 0
-4 -6 17 0
-13 15 -17 0
2 13 17 0
3 -10 15 0
-1 -8 15 0
-2 4 13 0
2 7 10 0
-1 12 13 0
3 -11 -14 0
-11 12 20 0
-2 3 -7 0
-1 5 -6 0
-6 8 -16 0
-6 -7 14 0
